p sp 100 99
a 1 2 1
a 1 4 1
a 1 9 1
a 1 10 1
a 1 13 1
a 1 23 1
a 1 41 1
a 1 45 1
a 1 57 1
a 1 59 1
a 1 62 1
a 1 83 1
a 2 3 1
a 4 6 1
a 4 7 1
a 4 8 1
a 4 12 1
a 4 15 1
a 4 16 1
a 4 18 1
a 4 19 1
a 4 35 1
a 4 53 1
a 4 54 1
a 4 94 1
a 9 14 1
a 9 34 1
a 9 37 1
a 9 48 1
a 9 91 1
a 10 22 1
a 10 24 1
a 10 43 1
a 10 46 1
a 10 55 1
a 10 78 1
a 41 52 1
a 41 58 1
a 41 63 1
a 57 92 1
a 24 27 1
a 24 28 1
a 24 38 1
a 46 67 1
a 38 71 1
a 34 51 1
a 7 11 1
a 7 17 1
a 7 20 1
a 7 32 1
a 7 56 1
a 7 69 1
a 7 88 1
a 7 90 1
a 8 31 1
a 8 82 1
a 8 96 1
a 16 40 1
a 18 21 1
a 18 26 1
a 18 50 1
a 18 85 1
a 19 25 1
a 19 33 1
a 33 39 1
a 33 44 1
a 33 49 1
a 33 66 1
a 39 42 1
a 39 68 1
a 42 47 1
a 42 77 1
a 42 80 1
a 21 74 1
a 21 87 1
a 50 81 1
a 50 84 1
a 85 95 1
a 74 97 1
a 40 60 1
a 40 65 1
a 96 100 1
a 32 79 1
a 56 98 1
a 56 99 1
a 3 5 1
a 3 29 1
a 3 36 1
a 3 61 1
a 3 64 1
a 3 70 1
a 3 73 1
a 3 75 1
a 3 86 1
a 3 93 1
a 5 30 1
a 5 89 1
a 29 72 1
a 75 76 1
